Version identifier: 12.10.0.0 | 2019-11-26 | 843d4de
CPXPARAM_WorkMem                                 28672
Tried aggregator 2 times.
Aggregator did 45 substitutions.
Reduced MIP has 245 rows, 300 columns, and 1135 nonzeros.
Reduced MIP has 300 binaries, 0 generals, 0 SOSs, and 0 indicators.
Presolve time = 0,00 sec. (1,07 ticks)
Found incumbent of value 225,000000 after 0,01 sec. (1,92 ticks)
Probing time = 0,00 sec. (0,43 ticks)
Tried aggregator 1 time.
Detecting symmetries...
MIP Presolve eliminated 60 rows and 0 columns.
MIP Presolve added 120 rows and 0 columns.
Reduced MIP has 305 rows, 300 columns, and 1195 nonzeros.
Reduced MIP has 300 binaries, 0 generals, 0 SOSs, and 0 indicators.
Presolve time = 0,00 sec. (1,36 ticks)
Probing time = 0,00 sec. (0,42 ticks)
Clique table members: 776.
MIP emphasis: balance optimality and feasibility.
MIP search method: dynamic search.
Parallel mode: deterministic, using up to 16 threads.
Root relaxation solution time = 0,00 sec. (1,44 ticks)

        Nodes                                         Cuts/
   Node  Left     Objective  IInf  Best Integer    Best Bound    ItCnt     Gap

*     0+    0                          225,0000        0,0000           100,00%
*     0+    0                          117,0000        0,0000           100,00%
*     0+    0                          108,0000        0,0000           100,00%
      0     0       45,0000   216      108,0000       45,0000      131   58,33%
      0     0       45,3210   216      108,0000     Cuts: 176      239   58,04%
      0     0       46,9137   216      108,0000     Cuts: 176      277   56,56%
      0     0       47,7009   216      108,0000      Cuts: 71      323   55,83%
      0     0       47,9498   216      108,0000     Cuts: 156      358   55,60%
      0     0       48,0907   216      108,0000       Cuts: 5      408   55,47%
      0     0       48,1294   216      108,0000       Cuts: 7      426   55,44%
      0     0       48,1321   216      108,0000   ZeroHalf: 1      428   55,43%
*     0+    0                          102,0000       48,1321            52,81%
*     0+    0                           99,0000       48,1321            51,38%
      0     2       48,1321   299       99,0000       51,0015      428   48,48%
Elapsed time = 0,19 sec. (104,54 ticks, tree = 0,02 MB, solutions = 5)
   1496  1049       72,3050   247       99,0000       61,1446    60767   38,24%
   2887  1986       80,2576   170       99,0000       63,5439   128736   35,81%

Performing restart 1

Repeating presolve.
Tried aggregator 1 time.
Reduced MIP has 305 rows, 300 columns, and 1195 nonzeros.
Reduced MIP has 300 binaries, 0 generals, 0 SOSs, and 0 indicators.
Presolve time = 0,00 sec. (1,04 ticks)
Tried aggregator 1 time.
Reduced MIP has 305 rows, 300 columns, and 1195 nonzeros.
Reduced MIP has 300 binaries, 0 generals, 0 SOSs, and 0 indicators.
Presolve time = 0,00 sec. (1,29 ticks)
Represolve time = 0,02 sec. (7,23 ticks)
   4542     0       48,8567   299       99,0000      Cuts: 19   228655   25,19%
   4542     0       49,7060   299       99,0000       Cuts: 8   228727   25,19%
   4542     0       50,3905   299       99,0000      Cuts: 15   228862   25,19%
   4542     0       50,7791   299       99,0000      Cuts: 11   228952   25,19%
   4542     2       50,7791   300       99,0000       74,0634   228952   25,19%
   4559     9       53,1291   278       99,0000       74,0634   230496   25,19%
   5961   960       81,2375    97       99,0000       74,0634   291402   25,19%
*  6236+ 1131                           98,0000       74,0634            24,43%
   7893  2444       95,0342    51       98,0000       74,0634   365598   24,43%
   9808  3889       88,1248   128       98,0000       74,0634   446655   24,43%

Performing restart 2

Repeating presolve.
Tried aggregator 1 time.
Reduced MIP has 305 rows, 300 columns, and 1195 nonzeros.
Reduced MIP has 300 binaries, 0 generals, 0 SOSs, and 0 indicators.
Presolve time = 0,00 sec. (1,04 ticks)
Tried aggregator 1 time.
Reduced MIP has 305 rows, 300 columns, and 1195 nonzeros.
Reduced MIP has 300 binaries, 0 generals, 0 SOSs, and 0 indicators.
Presolve time = 0,00 sec. (1,29 ticks)
Represolve time = 0,02 sec. (12,09 ticks)
  10439     0       51,7249   300       98,0000       Cuts: 8   506561   24,43%
  10439     0       52,0248   300       98,0000      Cuts: 15   506631   24,43%
  10439     0       52,3930   300       98,0000       Cuts: 8   506747   24,43%
  10439     0       52,8852   300       98,0000      Cuts: 15   506877   24,43%
  10439     0       53,1761   300       98,0000       Cuts: 7   507042   24,43%
  10439     0       53,3789   300       98,0000      Cuts: 12   507158   24,43%
  10439     2       53,3789   300       98,0000       74,0634   507158   24,43%
  12235   990        cutoff             98,0000       74,0634   560205   24,43%
* 18299+ 5004                           97,0000       78,4915            19,08%
  19087  5084        cutoff             97,0000       79,3746   918014   18,17%
Elapsed time = 4,51 sec. (3840,31 ticks, tree = 2,80 MB, solutions = 7)
  26678  7723       93,9687    93       97,0000       84,3246  1292885   13,07%
* 31484  8574      integral     0       96,0000       86,8077  1471995    9,58%
  33642  7269        cutoff             96,0000       87,8846  1569983    8,45%
* 41935  1043      integral     0       95,0000       94,1695  1777989    0,87%

Clique cuts applied:  24
Cover cuts applied:  585
Mixed integer rounding cuts applied:  63
Zero-half cuts applied:  3
Lift and project cuts applied:  13
Gomory fractional cuts applied:  56

Root node processing (before b&c):
  Real time             =    0,19 sec. (104,23 ticks)
Parallel b&c, 16 threads:
  Real time             =    7,88 sec. (6493,51 ticks)
  Sync time (average)   =    1,87 sec.
  Wait time (average)   =    0,01 sec.
                          ------------
Total (root+branch&cut) =    8,07 sec. (6597,74 ticks)
